4	143	143	0	16	16
5	144	103	0	0	0
6	236	184	0	0	0
7	279	240	0	15	15
8	267	244	0	16	16
9	261	225	0	31	31
10	385	252	0	0	0
11	438	308	0	203	203
12	377	341	0	16	16
13	541	340	0	32	32
14	551	395	0	31	31
15	675	375	0	47	47
16	560	395	0	31	31
17	656	392	0	78	78
18	634	457	0	187	187
19	875	509	0	78	78
